10	6	3.2
2 5 1 8 2 4 3 9 4 4 5 4 6 1 2 2 8 3 6 4 7 5 4 6 2
2 3 2 6 4 4 5 2 2 1 5 5 8
2 2 1 3 4 8 6 1 8 2 1 3 2 4 8 5 2 6 5
2 2 2 3 6 2 5 1 8 2 8 3 3 4 1 6 6
2 2 4 8 5 2 2 1 1 4 2
2 3 1 3 2 6 5 1 4 3 7 4 8 5 1 6 3
2 5 1 1 2 7 3 8 4 4 5 5 3 1 7 3 8 5 1
2 4 1 9 3 6 4 8 5 5 1 2 3
2 4 1 8 2 9 4 6 6 8 2 3 1 5 6
2 1 4 4 2 2 2 6 3
